p cnf 14 20
8 13 5 3 4 7 -1 0
-1 -5 0
8 5 0
10 14 1 -6 5 -11 13 -3 4 7 -9 -12 -8 -2 0
4 12 -10 14 -7 2 9 -1 8 6 0
2 8 13 0
11 -8 -12 7 -10 -13 5 6 -1 14 -2 -4 9 3 0
-5 8 3 -14 -12 -1 0
-1 -11 9 0
-9 5 -2 -13 8 -1 7 -14 12 3 0
-3 2 -13 -11 0
-13 -3 -4 -5 9 -11 -10 0
13 6 0
1 2 -10 -8 -4 -13 5 -12 -9 -7 -6 3 11 14 0
-13 1 6 11 -14 -8 5 10 9 -2 -3 0
-10 12 9 0
3 -12 -10 -11 0
-6 3 -8 0
-4 -12 0
11 -4 10 0
